(set-info :smt-lib-version 2.6)
(set-logic QF_FP)
(set-info :source |Random FP created by PyMPF|)
(set-info :license |https://www.gnu.org/licenses/gpl-3.0.html|)
(set-info :category random)
(set-info :status unsat)
(declare-const x Float32)
(assert (= x (fp #b0 #b01010010 #b10000111100011010101111)))
;; x should be Float32(0x2943C6AF [Rational(12830383, 295147905179352825856), 0.000000])

(declare-const y Float32)
(assert (= y ((_ to_fp 8 24) #xFFBC8659)))
;; y should be Float32(NaN)

(declare-const result Float32)
(assert (= result (fp.add RNE x y)))
(assert (not (= result (_ NaN 8 24))))
(check-sat)
(exit)
